experiment/data/lkh-res/Vrp-Set-X-n289/Vrp-Set-X-n289-lkh/0.lkh1.vrp
NAME : 0
COMMENT : CVRP Instance
TYPE : CVRP
DIMENSION : 289
EDGE_WEIGHT_TYPE : EUC_2D
CAPACITY : 267
NODE_COORD_SECTION
1	0	0
2	17400	32500
3	4900	3400
4	54300	81500
5	4200	92000
6	54500	8000
7	68100	95000
8	87000	11800
9	78700	22000
10	53700	92700
11	18000	83800
12	54300	58200
13	44200	62000
14	74700	56900
15	93200	4800
16	1400	35600
17	5300	47600
18	60300	22800
19	77200	57300
20	81100	35900
21	37300	3700
22	85900	14200
23	48900	54300
24	3700	77100
25	35400	94400
26	9600	6200
27	32600	72900
28	88100	54100
29	65300	72400
30	22600	75900
31	48100	4400
32	10000	88200
33	12900	29900
34	98900	51200
35	60000	4200
36	53800	77200
37	34600	47900
38	44800	62400
39	28600	41700
40	61200	45700
41	7000	46800
42	50200	90900
43	59500	50300
44	81900	94800
45	77100	35500
46	37200	19600
47	53500	77500
48	23200	51800
49	11900	62600
50	11000	83500
51	56700	34800
52	600	21100
53	49300	65200
54	9600	18300
55	10500	47900
56	87300	33300
57	46800	19900
58	53600	12000
59	1700	6500
60	63800	95800
61	32800	92100
62	96800	54000
63	12500	14500
64	69200	42200
65	55700	86400
66	75200	85000
67	70300	39500
68	49800	83200
69	34300	96200
70	58300	47400
71	97600	63600
72	10100	55500
73	7700	54400
74	98100	35300
75	62500	32400
76	62200	72800
77	85500	82700
78	79200	44300
79	28300	6300
80	76000	75100
81	97200	41700
82	69400	21400
83	3800	9100
84	29400	79100
85	42900	81500
86	69100	15400
87	93000	79200
88	57900	27900
89	43100	90900
90	61500	26400
91	44800	18500
92	4900	41400
93	88300	47800
94	62700	56400
95	4000	43400
96	71800	66000
97	89600	69400
98	71600	58600
99	60700	34300
100	67500	24400
101	28200	61700
102	19900	88000
103	99800	85500
104	58800	66200
105	5800	70000
106	22100	51000
107	51800	55400
108	20300	17300
109	94400	28200
110	25400	55800
111	42800	16500
112	84800	30500
113	86000	10000
114	60200	62000
115	43700	5500
116	92200	34800
117	43300	77600
118	89100	30600
119	21100	73100
120	40800	85900
121	49200	32200
122	58100	74600
123	86800	33700
124	36500	16100
125	56800	64600
126	45600	8100
127	47700	16200
128	42900	84400
129	39600	4100
130	13000	97200
131	56300	13500
132	31700	25800
133	41400	69600
134	54700	9000
135	60200	32500
136	32100	2700
137	26300	18400
138	47400	62900
139	52600	44000
140	81400	53400
141	28700	97500
142	1100	79100
143	21700	33100
144	74500	43000
145	3400	92500
146	8400	29800
147	1200	48900
148	14000	13200
149	75500	78400
150	94800	88900
151	20100	54500
152	60900	32200
153	88000	52500
154	64900	74400
155	64300	68400
156	76900	79000
157	31900	17800
158	73100	70900
159	78700	82800
160	22500	72600
161	59600	26500
162	63400	25600
163	66300	35900
164	16600	64000
165	64200	36200
166	52000	27000
167	4200	48000
168	11200	39900
169	15000	16800
170	8200	29200
171	12200	33000
172	12700	50200
173	77500	68700
174	1300	62000
175	63400	88800
176	6800	32000
177	98200	75300
178	22400	53700
179	84100	79800
180	17400	36600
181	2400	4000
182	14500	24800
183	41900	44400
184	87900	79200
185	92900	87600
186	12300	35500
187	98600	84700
188	94800	91500
189	87500	39300
190	11700	31500
191	66200	32900
192	3400	51700
193	7300	15900
194	8000	28800
195	15200	61500
196	19200	20200
197	88100	86700
198	76600	78100
199	66000	79800
200	18400	48700
201	70600	73800
202	7500	36700
203	19200	70000
204	27700	15100
205	900	45500
206	60500	30100
207	10200	33200
208	19300	61200
209	60600	30400
210	5000	41700
211	6100	34300
212	8000	51500
213	7900	41600
214	25700	31500
215	21500	13500
216	90400	91100
217	89200	73400
218	13000	12000
219	9100	21300
220	67900	82600
221	63400	31900
222	69800	25900
223	66400	28300
224	31600	69200
225	15900	59000
226	76800	62700
227	58300	30800
228	55200	30000
229	89000	94200
230	92100	84100
231	88400	68200
232	2800	62700
233	84600	78900
234	14100	8400
235	15100	45200
236	65100	23100
237	59300	20500
238	12600	51100
239	99800	98800
240	5300	41800
241	12600	27900
242	6500	47900
243	21700	66400
244	91600	98300
245	46500	50400
246	1100	43500
247	32800	8700
248	34100	49500
249	16700	10000
250	7500	22100
251	1200	13900
252	71200	86300
253	85400	92000
254	9500	31200
255	6500	27200
256	0	42600
257	70000	80600
258	3600	55100
259	20000	57800
260	57200	40200
261	69500	32600
262	81100	73000
263	95700	88000
264	19400	13100
265	12000	60400
266	99800	97600
267	73600	91400
268	25200	34300
269	65300	92200
270	72600	78400
271	17100	21800
272	18800	45200
273	17000	51500
274	93200	94400
275	59400	87600
276	16900	3500
277	14900	58000
278	75800	82600
279	6900	1200
280	87800	95400
281	72800	81200
282	14100	49800
283	14900	10300
284	67100	37000
285	46700	24800
286	25600	55900
287	11500	23300
288	60500	28300
289	88000	76400
DEMAND_SECTION
1	0
2	73
3	71
4	59
5	29
6	19
7	79
8	27
9	13
10	77
11	21
12	99
13	24
14	71
15	38
16	59
17	56
18	41
19	87
20	28
21	81
22	18
23	49
24	28
25	35
26	86
27	40
28	89
29	75
30	25
31	56
32	43
33	57
34	88
35	37
36	88
37	76
38	37
39	67
40	3
41	64
42	53
43	72
44	55
45	22
46	56
47	51
48	30
49	15
50	1
51	46
52	78
53	18
54	62
55	100
56	43
57	87
58	4
59	71
60	87
61	36
62	77
63	61
64	5
65	96
66	82
67	22
68	33
69	30
70	32
71	88
72	5
73	47
74	47
75	28
76	65
77	77
78	13
79	57
80	52
81	36
82	24
83	78
84	17
85	12
86	50
87	70
88	45
89	41
90	11
91	51
92	54
93	14
94	70
95	76
96	57
97	59
98	100
99	7
100	10
101	23
102	25
103	65
104	70
105	2
106	25
107	91
108	86
109	48
110	24
111	94
112	7
113	19
114	97
115	79
116	15
117	23
118	43
119	11
120	44
121	92
122	77
123	26
124	83
125	80
126	86
127	97
128	12
129	71
130	24
131	49
132	52
133	37
134	4
135	41
136	99
137	97
138	20
139	32
140	51
141	13
142	3
143	64
144	24
145	21
146	83
147	51
148	77
149	79
150	96
151	36
152	4
153	84
154	83
155	60
156	93
157	57
158	98
159	81
160	18
161	42
162	14
163	22
164	1
165	42
166	32
167	85
168	60
169	76
170	94
171	100
172	46
173	76
174	6
175	79
176	71
177	82
178	43
179	67
180	62
181	55
182	57
183	83
184	92
185	90
186	70
187	53
188	85
189	42
190	78
191	37
192	42
193	85
194	64
195	34
196	87
197	84
198	100
199	60
200	52
201	89
202	66
203	27
204	64
205	92
206	36
207	79
208	37
209	49
210	99
211	89
212	39
213	60
214	83
215	54
216	62
217	70
218	83
219	72
220	55
221	14
222	48
223	46
224	48
225	11
226	60
227	36
228	19
229	100
230	96
231	98
232	4
233	87
234	83
235	100
236	44
237	9
238	31
239	79
240	53
241	80
242	93
243	37
244	74
245	25
246	71
247	60
248	94
249	60
250	85
251	67
252	84
253	96
254	77
255	88
256	84
257	75
258	27
259	6
260	15
261	11
262	81
263	62
264	63
265	42
266	55
267	66
268	82
269	75
270	87
271	79
272	70
273	39
274	85
275	64
276	89
277	12
278	71
279	77
280	54
281	74
282	60
283	79
284	45
285	70
286	24
287	60
288	37
289	97
DEPOT_SECTION
1
-1
EOF
