experiment/data/lkh-res/Vrp-Set-X-n289/Vrp-Set-X-n289-lkh/0.lkh1.log
PARAMETER_FILE = baseline_results/cvrp_lkh/Vrp-Set-X-n289/Vrp-Set-X-n289-lkh/0.lkh1.par
Reading PROBLEM_FILE: "baseline_results/cvrp_lkh/Vrp-Set-X-n289/Vrp-Set-X-n289-lkh/0.lkh1.vrp" ... done
ASCENT_CANDIDATES = 50
BACKBONE_TRIALS = 0
BACKTRACKING = NO
# BWTSP =
# CANDIDATE_FILE =
CANDIDATE_SET_TYPE = ALPHA
# DISTANCE =
DEPOT = 1
# EDGE_FILE =
EXCESS = 0.00346021
EXTERNAL_SALESMEN = 0
EXTRA_CANDIDATES = 0 
EXTRA_CANDIDATE_SET_TYPE = QUADRANT
GAIN23 = NO
GAIN_CRITERION = YES
INITIAL_PERIOD = 144
INITIAL_STEP_SIZE = 1
INITIAL_TOUR_ALGORITHM = WALK
# INITIAL_TOUR_FILE = 
INITIAL_TOUR_FRACTION = 1.000
# INPUT_TOUR_FILE = 
KICK_TYPE = 4
KICKS = 1
# MAX_BREADTH =
MAKESPAN = NO
MAX_CANDIDATES = 5 
MAX_SWAPS = 0
MAX_TRIALS = 10000
# MERGE_TOUR_FILE =
MOVE_TYPE = 5 SPECIAL
MTSP_MIN_SIZE = 1
MTSP_MAX_SIZE = 288
# MTSP_SOLUTION_FILE = 
# NONSEQUENTIAL_MOVE_TYPE = 5
# OPTIMUM =
OUTPUT_TOUR_FILE = baseline_results/cvrp_lkh/Vrp-Set-X-n289/Vrp-Set-X-n289-lkh/0.lkh1.tour
PATCHING_A = 1 
PATCHING_C = 0 
# PI_FILE = 
POPMUSIC_INITIAL_TOUR = NO
POPMUSIC_MAX_NEIGHBORS = 5
POPMUSIC_SAMPLE_SIZE = 10
POPMUSIC_SOLUTIONS = 50
POPMUSIC_TRIALS = 1
POPULATION_SIZE = 10
PRECISION = 100
PROBLEM_FILE = baseline_results/cvrp_lkh/Vrp-Set-X-n289/Vrp-Set-X-n289-lkh/0.lkh1.vrp
RECOMBINATION = IPT
RESTRICTED_SEARCH = YES
RUNS = 1
SALESMEN = 60
SCALE = 1
SEED = 1234
# SINTEF_SOLUTION_FILE = 
STOP_AT_OPTIMUM = YES
SUBGRADIENT = YES
# SUBPROBLEM_SIZE =
# SUBPROBLEM_TOUR_FILE = 
SUBSEQUENT_MOVE_TYPE = 5 SPECIAL
SUBSEQUENT_PATCHING = YES
# TIME_LIMIT =
# TOTAL_TIME_LIMIT =
# TOUR_FILE = 
TRACE_LEVEL = 1
VEHICLES = 60

Lower bound = 4374126.0, Ascent time = 0.13 sec.
Cand.min = 2, Cand.avg = 5.0, Cand.max = 5
Preprocessing time = 0.13 sec.
* 1: Cost = 1_11994067, Time = 0.52 sec. 
* 2: Cost = 0_12169518, Time = 0.81 sec. 
Writing OUTPUT_TOUR_FILE: "baseline_results/cvrp_lkh/Vrp-Set-X-n289/Vrp-Set-X-n289-lkh/0.lkh1.tour" ... done
* 3: Cost = 0_11799779, Time = 1.20 sec. 
Writing OUTPUT_TOUR_FILE: "baseline_results/cvrp_lkh/Vrp-Set-X-n289/Vrp-Set-X-n289-lkh/0.lkh1.tour" ... done
* 6: Cost = 0_11788107, Time = 2.01 sec. 
Writing OUTPUT_TOUR_FILE: "baseline_results/cvrp_lkh/Vrp-Set-X-n289/Vrp-Set-X-n289-lkh/0.lkh1.tour" ... done
* 7: Cost = 0_11741479, Time = 2.05 sec. 
Writing OUTPUT_TOUR_FILE: "baseline_results/cvrp_lkh/Vrp-Set-X-n289/Vrp-Set-X-n289-lkh/0.lkh1.tour" ... done
* 10: Cost = 0_11740648, Time = 2.47 sec. 
Writing OUTPUT_TOUR_FILE: "baseline_results/cvrp_lkh/Vrp-Set-X-n289/Vrp-Set-X-n289-lkh/0.lkh1.tour" ... done
* 11: Cost = 0_11615392, Time = 2.57 sec. 
Writing OUTPUT_TOUR_FILE: "baseline_results/cvrp_lkh/Vrp-Set-X-n289/Vrp-Set-X-n289-lkh/0.lkh1.tour" ... done
* 15: Cost = 0_11612720, Time = 2.82 sec. 
Writing OUTPUT_TOUR_FILE: "baseline_results/cvrp_lkh/Vrp-Set-X-n289/Vrp-Set-X-n289-lkh/0.lkh1.tour" ... done
* 16: Cost = 0_11611318, Time = 3.03 sec. 
Writing OUTPUT_TOUR_FILE: "baseline_results/cvrp_lkh/Vrp-Set-X-n289/Vrp-Set-X-n289-lkh/0.lkh1.tour" ... done
* 19: Cost = 0_11513281, Time = 3.56 sec. 
Writing OUTPUT_TOUR_FILE: "baseline_results/cvrp_lkh/Vrp-Set-X-n289/Vrp-Set-X-n289-lkh/0.lkh1.tour" ... done
* 22: Cost = 0_11512621, Time = 4.40 sec. 
Writing OUTPUT_TOUR_FILE: "baseline_results/cvrp_lkh/Vrp-Set-X-n289/Vrp-Set-X-n289-lkh/0.lkh1.tour" ... done
* 25: Cost = 0_11437910, Time = 5.18 sec. 
Writing OUTPUT_TOUR_FILE: "baseline_results/cvrp_lkh/Vrp-Set-X-n289/Vrp-Set-X-n289-lkh/0.lkh1.tour" ... done
* 29: Cost = 0_11249865, Time = 6.36 sec. 
Writing OUTPUT_TOUR_FILE: "baseline_results/cvrp_lkh/Vrp-Set-X-n289/Vrp-Set-X-n289-lkh/0.lkh1.tour" ... done
* 31: Cost = 0_11242905, Time = 6.67 sec. 
Writing OUTPUT_TOUR_FILE: "baseline_results/cvrp_lkh/Vrp-Set-X-n289/Vrp-Set-X-n289-lkh/0.lkh1.tour" ... done
* 42: Cost = 0_11228245, Time = 8.57 sec. 
Writing OUTPUT_TOUR_FILE: "baseline_results/cvrp_lkh/Vrp-Set-X-n289/Vrp-Set-X-n289-lkh/0.lkh1.tour" ... done
* 43: Cost = 0_11037850, Time = 8.75 sec. 
Writing OUTPUT_TOUR_FILE: "baseline_results/cvrp_lkh/Vrp-Set-X-n289/Vrp-Set-X-n289-lkh/0.lkh1.tour" ... done
* 46: Cost = 0_10969841, Time = 9.34 sec. 
Writing OUTPUT_TOUR_FILE: "baseline_results/cvrp_lkh/Vrp-Set-X-n289/Vrp-Set-X-n289-lkh/0.lkh1.tour" ... done
* 54: Cost = 0_10899255, Time = 11.62 sec. 
Writing OUTPUT_TOUR_FILE: "baseline_results/cvrp_lkh/Vrp-Set-X-n289/Vrp-Set-X-n289-lkh/0.lkh1.tour" ... done
* 90: Cost = 0_10892398, Time = 17.54 sec. 
Writing OUTPUT_TOUR_FILE: "baseline_results/cvrp_lkh/Vrp-Set-X-n289/Vrp-Set-X-n289-lkh/0.lkh1.tour" ... done
* 94: Cost = 0_10891545, Time = 18.35 sec. 
Writing OUTPUT_TOUR_FILE: "baseline_results/cvrp_lkh/Vrp-Set-X-n289/Vrp-Set-X-n289-lkh/0.lkh1.tour" ... done
* 104: Cost = 0_10813101, Time = 20.11 sec. 
Writing OUTPUT_TOUR_FILE: "baseline_results/cvrp_lkh/Vrp-Set-X-n289/Vrp-Set-X-n289-lkh/0.lkh1.tour" ... done
* 108: Cost = 0_10794718, Time = 20.72 sec. 
Writing OUTPUT_TOUR_FILE: "baseline_results/cvrp_lkh/Vrp-Set-X-n289/Vrp-Set-X-n289-lkh/0.lkh1.tour" ... done
* 114: Cost = 0_10787433, Time = 21.31 sec. 
Writing OUTPUT_TOUR_FILE: "baseline_results/cvrp_lkh/Vrp-Set-X-n289/Vrp-Set-X-n289-lkh/0.lkh1.tour" ... done
* 127: Cost = 0_10787243, Time = 23.99 sec. 
Writing OUTPUT_TOUR_FILE: "baseline_results/cvrp_lkh/Vrp-Set-X-n289/Vrp-Set-X-n289-lkh/0.lkh1.tour" ... done
* 128: Cost = 0_10786640, Time = 24.00 sec. 
Writing OUTPUT_TOUR_FILE: "baseline_results/cvrp_lkh/Vrp-Set-X-n289/Vrp-Set-X-n289-lkh/0.lkh1.tour" ... done
* 154: Cost = 0_10771947, Time = 28.44 sec. 
Writing OUTPUT_TOUR_FILE: "baseline_results/cvrp_lkh/Vrp-Set-X-n289/Vrp-Set-X-n289-lkh/0.lkh1.tour" ... done
* 158: Cost = 0_10768401, Time = 29.25 sec. 
Writing OUTPUT_TOUR_FILE: "baseline_results/cvrp_lkh/Vrp-Set-X-n289/Vrp-Set-X-n289-lkh/0.lkh1.tour" ... done
* 174: Cost = 0_10762986, Time = 33.15 sec. 
Writing OUTPUT_TOUR_FILE: "baseline_results/cvrp_lkh/Vrp-Set-X-n289/Vrp-Set-X-n289-lkh/0.lkh1.tour" ... done
* 188: Cost = 0_10754998, Time = 35.55 sec. 
Writing OUTPUT_TOUR_FILE: "baseline_results/cvrp_lkh/Vrp-Set-X-n289/Vrp-Set-X-n289-lkh/0.lkh1.tour" ... done
* 189: Cost = 0_10749153, Time = 35.58 sec. 
Writing OUTPUT_TOUR_FILE: "baseline_results/cvrp_lkh/Vrp-Set-X-n289/Vrp-Set-X-n289-lkh/0.lkh1.tour" ... done
* 192: Cost = 0_10717693, Time = 35.88 sec. 
Writing OUTPUT_TOUR_FILE: "baseline_results/cvrp_lkh/Vrp-Set-X-n289/Vrp-Set-X-n289-lkh/0.lkh1.tour" ... done
* 195: Cost = 0_10717334, Time = 36.62 sec. 
Writing OUTPUT_TOUR_FILE: "baseline_results/cvrp_lkh/Vrp-Set-X-n289/Vrp-Set-X-n289-lkh/0.lkh1.tour" ... done
* 214: Cost = 0_10703017, Time = 39.36 sec. 
Writing OUTPUT_TOUR_FILE: "baseline_results/cvrp_lkh/Vrp-Set-X-n289/Vrp-Set-X-n289-lkh/0.lkh1.tour" ... done
* 221: Cost = 0_10668200, Time = 40.37 sec. 
Writing OUTPUT_TOUR_FILE: "baseline_results/cvrp_lkh/Vrp-Set-X-n289/Vrp-Set-X-n289-lkh/0.lkh1.tour" ... done
* 230: Cost = 0_10662342, Time = 41.39 sec. 
Writing OUTPUT_TOUR_FILE: "baseline_results/cvrp_lkh/Vrp-Set-X-n289/Vrp-Set-X-n289-lkh/0.lkh1.tour" ... done
* 233: Cost = 0_10614584, Time = 42.17 sec. 
Writing OUTPUT_TOUR_FILE: "baseline_results/cvrp_lkh/Vrp-Set-X-n289/Vrp-Set-X-n289-lkh/0.lkh1.tour" ... done
* 243: Cost = 0_10593934, Time = 44.58 sec. 
Writing OUTPUT_TOUR_FILE: "baseline_results/cvrp_lkh/Vrp-Set-X-n289/Vrp-Set-X-n289-lkh/0.lkh1.tour" ... done
* 262: Cost = 0_10593325, Time = 46.80 sec. 
Writing OUTPUT_TOUR_FILE: "baseline_results/cvrp_lkh/Vrp-Set-X-n289/Vrp-Set-X-n289-lkh/0.lkh1.tour" ... done
* 282: Cost = 0_10557062, Time = 48.78 sec. 
Writing OUTPUT_TOUR_FILE: "baseline_results/cvrp_lkh/Vrp-Set-X-n289/Vrp-Set-X-n289-lkh/0.lkh1.tour" ... done
* 285: Cost = 0_10534397, Time = 49.02 sec. 
Writing OUTPUT_TOUR_FILE: "baseline_results/cvrp_lkh/Vrp-Set-X-n289/Vrp-Set-X-n289-lkh/0.lkh1.tour" ... done
* 286: Cost = 0_10527730, Time = 49.08 sec. 
Writing OUTPUT_TOUR_FILE: "baseline_results/cvrp_lkh/Vrp-Set-X-n289/Vrp-Set-X-n289-lkh/0.lkh1.tour" ... done
* 302: Cost = 0_10489496, Time = 51.80 sec. 
Writing OUTPUT_TOUR_FILE: "baseline_results/cvrp_lkh/Vrp-Set-X-n289/Vrp-Set-X-n289-lkh/0.lkh1.tour" ... done
* 314: Cost = 0_10436167, Time = 53.33 sec. 
Writing OUTPUT_TOUR_FILE: "baseline_results/cvrp_lkh/Vrp-Set-X-n289/Vrp-Set-X-n289-lkh/0.lkh1.tour" ... done
* 318: Cost = 0_10434921, Time = 53.95 sec. 
Writing OUTPUT_TOUR_FILE: "baseline_results/cvrp_lkh/Vrp-Set-X-n289/Vrp-Set-X-n289-lkh/0.lkh1.tour" ... done
* 333: Cost = 0_10432654, Time = 55.59 sec. 
Writing OUTPUT_TOUR_FILE: "baseline_results/cvrp_lkh/Vrp-Set-X-n289/Vrp-Set-X-n289-lkh/0.lkh1.tour" ... done
* 341: Cost = 0_10429674, Time = 56.92 sec. 
Writing OUTPUT_TOUR_FILE: "baseline_results/cvrp_lkh/Vrp-Set-X-n289/Vrp-Set-X-n289-lkh/0.lkh1.tour" ... done
* 367: Cost = 0_10425929, Time = 60.11 sec. 
Writing OUTPUT_TOUR_FILE: "baseline_results/cvrp_lkh/Vrp-Set-X-n289/Vrp-Set-X-n289-lkh/0.lkh1.tour" ... done
* 379: Cost = 0_10424965, Time = 61.57 sec. 
Writing OUTPUT_TOUR_FILE: "baseline_results/cvrp_lkh/Vrp-Set-X-n289/Vrp-Set-X-n289-lkh/0.lkh1.tour" ... done
* 381: Cost = 0_10424668, Time = 61.68 sec. 
Writing OUTPUT_TOUR_FILE: "baseline_results/cvrp_lkh/Vrp-Set-X-n289/Vrp-Set-X-n289-lkh/0.lkh1.tour" ... done
* 417: Cost = 0_10383081, Time = 66.83 sec. 
Writing OUTPUT_TOUR_FILE: "baseline_results/cvrp_lkh/Vrp-Set-X-n289/Vrp-Set-X-n289-lkh/0.lkh1.tour" ... done
* 430: Cost = 0_10379777, Time = 68.95 sec. 
Writing OUTPUT_TOUR_FILE: "baseline_results/cvrp_lkh/Vrp-Set-X-n289/Vrp-Set-X-n289-lkh/0.lkh1.tour" ... done
* 444: Cost = 0_10374631, Time = 71.06 sec. 
Writing OUTPUT_TOUR_FILE: "baseline_results/cvrp_lkh/Vrp-Set-X-n289/Vrp-Set-X-n289-lkh/0.lkh1.tour" ... done
* 446: Cost = 0_10318694, Time = 71.19 sec. 
Writing OUTPUT_TOUR_FILE: "baseline_results/cvrp_lkh/Vrp-Set-X-n289/Vrp-Set-X-n289-lkh/0.lkh1.tour" ... done
* 465: Cost = 0_10279242, Time = 73.37 sec. 
Writing OUTPUT_TOUR_FILE: "baseline_results/cvrp_lkh/Vrp-Set-X-n289/Vrp-Set-X-n289-lkh/0.lkh1.tour" ... done
* 491: Cost = 0_10278815, Time = 77.36 sec. 
Writing OUTPUT_TOUR_FILE: "baseline_results/cvrp_lkh/Vrp-Set-X-n289/Vrp-Set-X-n289-lkh/0.lkh1.tour" ... done
* 550: Cost = 0_10272956, Time = 86.88 sec. 
Writing OUTPUT_TOUR_FILE: "baseline_results/cvrp_lkh/Vrp-Set-X-n289/Vrp-Set-X-n289-lkh/0.lkh1.tour" ... done
* 593: Cost = 0_10271920, Time = 93.09 sec. 
Writing OUTPUT_TOUR_FILE: "baseline_results/cvrp_lkh/Vrp-Set-X-n289/Vrp-Set-X-n289-lkh/0.lkh1.tour" ... done
* 610: Cost = 0_10267134, Time = 96.46 sec. 
Writing OUTPUT_TOUR_FILE: "baseline_results/cvrp_lkh/Vrp-Set-X-n289/Vrp-Set-X-n289-lkh/0.lkh1.tour" ... done
* 621: Cost = 0_10265429, Time = 97.40 sec. 
Writing OUTPUT_TOUR_FILE: "baseline_results/cvrp_lkh/Vrp-Set-X-n289/Vrp-Set-X-n289-lkh/0.lkh1.tour" ... done
* 626: Cost = 0_10264346, Time = 98.36 sec. 
Writing OUTPUT_TOUR_FILE: "baseline_results/cvrp_lkh/Vrp-Set-X-n289/Vrp-Set-X-n289-lkh/0.lkh1.tour" ... done
* 646: Cost = 0_10264196, Time = 102.20 sec. 
Writing OUTPUT_TOUR_FILE: "baseline_results/cvrp_lkh/Vrp-Set-X-n289/Vrp-Set-X-n289-lkh/0.lkh1.tour" ... done
* 663: Cost = 0_10253048, Time = 104.83 sec. 
Writing OUTPUT_TOUR_FILE: "baseline_results/cvrp_lkh/Vrp-Set-X-n289/Vrp-Set-X-n289-lkh/0.lkh1.tour" ... done
* 667: Cost = 0_10251924, Time = 105.70 sec. 
Writing OUTPUT_TOUR_FILE: "baseline_results/cvrp_lkh/Vrp-Set-X-n289/Vrp-Set-X-n289-lkh/0.lkh1.tour" ... done
* 687: Cost = 0_10251454, Time = 108.53 sec. 
Writing OUTPUT_TOUR_FILE: "baseline_results/cvrp_lkh/Vrp-Set-X-n289/Vrp-Set-X-n289-lkh/0.lkh1.tour" ... done
* 707: Cost = 0_10250430, Time = 112.57 sec. 
Writing OUTPUT_TOUR_FILE: "baseline_results/cvrp_lkh/Vrp-Set-X-n289/Vrp-Set-X-n289-lkh/0.lkh1.tour" ... done
* 715: Cost = 0_10247049, Time = 114.00 sec. 
Writing OUTPUT_TOUR_FILE: "baseline_results/cvrp_lkh/Vrp-Set-X-n289/Vrp-Set-X-n289-lkh/0.lkh1.tour" ... done
* 756: Cost = 0_10235122, Time = 119.71 sec. 
Writing OUTPUT_TOUR_FILE: "baseline_results/cvrp_lkh/Vrp-Set-X-n289/Vrp-Set-X-n289-lkh/0.lkh1.tour" ... done
* 837: Cost = 0_10233015, Time = 133.73 sec. 
Writing OUTPUT_TOUR_FILE: "baseline_results/cvrp_lkh/Vrp-Set-X-n289/Vrp-Set-X-n289-lkh/0.lkh1.tour" ... done
* 858: Cost = 0_10231932, Time = 138.08 sec. 
Writing OUTPUT_TOUR_FILE: "baseline_results/cvrp_lkh/Vrp-Set-X-n289/Vrp-Set-X-n289-lkh/0.lkh1.tour" ... done
* 867: Cost = 0_10229204, Time = 139.60 sec. 
Writing OUTPUT_TOUR_FILE: "baseline_results/cvrp_lkh/Vrp-Set-X-n289/Vrp-Set-X-n289-lkh/0.lkh1.tour" ... done
* 880: Cost = 0_10227095, Time = 141.18 sec. 
Writing OUTPUT_TOUR_FILE: "baseline_results/cvrp_lkh/Vrp-Set-X-n289/Vrp-Set-X-n289-lkh/0.lkh1.tour" ... done
* 962: Cost = 0_10226963, Time = 152.66 sec. 
Writing OUTPUT_TOUR_FILE: "baseline_results/cvrp_lkh/Vrp-Set-X-n289/Vrp-Set-X-n289-lkh/0.lkh1.tour" ... done
* 1021: Cost = 0_10226803, Time = 162.66 sec. 
Writing OUTPUT_TOUR_FILE: "baseline_results/cvrp_lkh/Vrp-Set-X-n289/Vrp-Set-X-n289-lkh/0.lkh1.tour" ... done
* 1028: Cost = 0_10225129, Time = 163.46 sec. 
Writing OUTPUT_TOUR_FILE: "baseline_results/cvrp_lkh/Vrp-Set-X-n289/Vrp-Set-X-n289-lkh/0.lkh1.tour" ... done
* 1041: Cost = 0_10223507, Time = 165.53 sec. 
Writing OUTPUT_TOUR_FILE: "baseline_results/cvrp_lkh/Vrp-Set-X-n289/Vrp-Set-X-n289-lkh/0.lkh1.tour" ... done
* 1086: Cost = 0_10219907, Time = 174.95 sec. 
Writing OUTPUT_TOUR_FILE: "baseline_results/cvrp_lkh/Vrp-Set-X-n289/Vrp-Set-X-n289-lkh/0.lkh1.tour" ... done
* 1088: Cost = 0_10216867, Time = 174.96 sec. 
Writing OUTPUT_TOUR_FILE: "baseline_results/cvrp_lkh/Vrp-Set-X-n289/Vrp-Set-X-n289-lkh/0.lkh1.tour" ... done
* 1090: Cost = 0_10215414, Time = 175.06 sec. 
Writing OUTPUT_TOUR_FILE: "baseline_results/cvrp_lkh/Vrp-Set-X-n289/Vrp-Set-X-n289-lkh/0.lkh1.tour" ... done
* 1106: Cost = 0_10210469, Time = 177.11 sec. 
Writing OUTPUT_TOUR_FILE: "baseline_results/cvrp_lkh/Vrp-Set-X-n289/Vrp-Set-X-n289-lkh/0.lkh1.tour" ... done
* 1119: Cost = 0_10210050, Time = 178.38 sec. 
Writing OUTPUT_TOUR_FILE: "baseline_results/cvrp_lkh/Vrp-Set-X-n289/Vrp-Set-X-n289-lkh/0.lkh1.tour" ... done
* 1177: Cost = 0_10208799, Time = 186.02 sec. 
Writing OUTPUT_TOUR_FILE: "baseline_results/cvrp_lkh/Vrp-Set-X-n289/Vrp-Set-X-n289-lkh/0.lkh1.tour" ... done
* 1191: Cost = 0_10206458, Time = 187.64 sec. 
Writing OUTPUT_TOUR_FILE: "baseline_results/cvrp_lkh/Vrp-Set-X-n289/Vrp-Set-X-n289-lkh/0.lkh1.tour" ... done
* 1193: Cost = 0_10203821, Time = 187.83 sec. 
Writing OUTPUT_TOUR_FILE: "baseline_results/cvrp_lkh/Vrp-Set-X-n289/Vrp-Set-X-n289-lkh/0.lkh1.tour" ... done
* 1297: Cost = 0_10203031, Time = 200.39 sec. 
Writing OUTPUT_TOUR_FILE: "baseline_results/cvrp_lkh/Vrp-Set-X-n289/Vrp-Set-X-n289-lkh/0.lkh1.tour" ... done
* 1315: Cost = 0_10202934, Time = 203.11 sec. 
Writing OUTPUT_TOUR_FILE: "baseline_results/cvrp_lkh/Vrp-Set-X-n289/Vrp-Set-X-n289-lkh/0.lkh1.tour" ... done
* 1341: Cost = 0_10179525, Time = 206.52 sec. 
Writing OUTPUT_TOUR_FILE: "baseline_results/cvrp_lkh/Vrp-Set-X-n289/Vrp-Set-X-n289-lkh/0.lkh1.tour" ... done
* 1446: Cost = 0_10175789, Time = 224.52 sec. 
Writing OUTPUT_TOUR_FILE: "baseline_results/cvrp_lkh/Vrp-Set-X-n289/Vrp-Set-X-n289-lkh/0.lkh1.tour" ... done
* 1537: Cost = 0_10175705, Time = 236.36 sec. 
Writing OUTPUT_TOUR_FILE: "baseline_results/cvrp_lkh/Vrp-Set-X-n289/Vrp-Set-X-n289-lkh/0.lkh1.tour" ... done
* 1540: Cost = 0_10160336, Time = 236.45 sec. 
Writing OUTPUT_TOUR_FILE: "baseline_results/cvrp_lkh/Vrp-Set-X-n289/Vrp-Set-X-n289-lkh/0.lkh1.tour" ... done
* 1581: Cost = 0_10153306, Time = 242.77 sec. 
Writing OUTPUT_TOUR_FILE: "baseline_results/cvrp_lkh/Vrp-Set-X-n289/Vrp-Set-X-n289-lkh/0.lkh1.tour" ... done
* 1624: Cost = 0_10147203, Time = 249.78 sec. 
Writing OUTPUT_TOUR_FILE: "baseline_results/cvrp_lkh/Vrp-Set-X-n289/Vrp-Set-X-n289-lkh/0.lkh1.tour" ... done
* 1645: Cost = 0_10140968, Time = 252.75 sec. 
Writing OUTPUT_TOUR_FILE: "baseline_results/cvrp_lkh/Vrp-Set-X-n289/Vrp-Set-X-n289-lkh/0.lkh1.tour" ... done
* 1719: Cost = 0_10140897, Time = 261.51 sec. 
Writing OUTPUT_TOUR_FILE: "baseline_results/cvrp_lkh/Vrp-Set-X-n289/Vrp-Set-X-n289-lkh/0.lkh1.tour" ... done
* 1723: Cost = 0_10110722, Time = 261.71 sec. 
Writing OUTPUT_TOUR_FILE: "baseline_results/cvrp_lkh/Vrp-Set-X-n289/Vrp-Set-X-n289-lkh/0.lkh1.tour" ... done
* 1758: Cost = 0_10109356, Time = 267.27 sec. 
Writing OUTPUT_TOUR_FILE: "baseline_results/cvrp_lkh/Vrp-Set-X-n289/Vrp-Set-X-n289-lkh/0.lkh1.tour" ... done
* 1809: Cost = 0_10102052, Time = 273.51 sec. 
Writing OUTPUT_TOUR_FILE: "baseline_results/cvrp_lkh/Vrp-Set-X-n289/Vrp-Set-X-n289-lkh/0.lkh1.tour" ... done
* 1824: Cost = 0_10100603, Time = 276.09 sec. 
Writing OUTPUT_TOUR_FILE: "baseline_results/cvrp_lkh/Vrp-Set-X-n289/Vrp-Set-X-n289-lkh/0.lkh1.tour" ... done
* 1842: Cost = 0_10100532, Time = 279.68 sec. 
Writing OUTPUT_TOUR_FILE: "baseline_results/cvrp_lkh/Vrp-Set-X-n289/Vrp-Set-X-n289-lkh/0.lkh1.tour" ... done
* 1871: Cost = 0_10100366, Time = 284.95 sec. 
Writing OUTPUT_TOUR_FILE: "baseline_results/cvrp_lkh/Vrp-Set-X-n289/Vrp-Set-X-n289-lkh/0.lkh1.tour" ... done
* 1890: Cost = 0_10099566, Time = 287.81 sec. 
Writing OUTPUT_TOUR_FILE: "baseline_results/cvrp_lkh/Vrp-Set-X-n289/Vrp-Set-X-n289-lkh/0.lkh1.tour" ... done
* 1891: Cost = 0_10098413, Time = 287.90 sec. 
Writing OUTPUT_TOUR_FILE: "baseline_results/cvrp_lkh/Vrp-Set-X-n289/Vrp-Set-X-n289-lkh/0.lkh1.tour" ... done
* 1923: Cost = 0_10098361, Time = 293.03 sec. 
Writing OUTPUT_TOUR_FILE: "baseline_results/cvrp_lkh/Vrp-Set-X-n289/Vrp-Set-X-n289-lkh/0.lkh1.tour" ... done
* 1930: Cost = 0_10095843, Time = 294.29 sec. 
Writing OUTPUT_TOUR_FILE: "baseline_results/cvrp_lkh/Vrp-Set-X-n289/Vrp-Set-X-n289-lkh/0.lkh1.tour" ... done
* 1933: Cost = 0_10092829, Time = 294.81 sec. 
Writing OUTPUT_TOUR_FILE: "baseline_results/cvrp_lkh/Vrp-Set-X-n289/Vrp-Set-X-n289-lkh/0.lkh1.tour" ... done
* 1948: Cost = 0_10090085, Time = 297.70 sec. 
Writing OUTPUT_TOUR_FILE: "baseline_results/cvrp_lkh/Vrp-Set-X-n289/Vrp-Set-X-n289-lkh/0.lkh1.tour" ... done
* 1961: Cost = 0_10089834, Time = 300.40 sec. 
Writing OUTPUT_TOUR_FILE: "baseline_results/cvrp_lkh/Vrp-Set-X-n289/Vrp-Set-X-n289-lkh/0.lkh1.tour" ... done
* 2013: Cost = 0_10085818, Time = 306.95 sec. 
Writing OUTPUT_TOUR_FILE: "baseline_results/cvrp_lkh/Vrp-Set-X-n289/Vrp-Set-X-n289-lkh/0.lkh1.tour" ... done
* 2057: Cost = 0_10085338, Time = 313.47 sec. 
Writing OUTPUT_TOUR_FILE: "baseline_results/cvrp_lkh/Vrp-Set-X-n289/Vrp-Set-X-n289-lkh/0.lkh1.tour" ... done
* 2153: Cost = 0_10085101, Time = 326.31 sec. 
Writing OUTPUT_TOUR_FILE: "baseline_results/cvrp_lkh/Vrp-Set-X-n289/Vrp-Set-X-n289-lkh/0.lkh1.tour" ... done
* 2249: Cost = 0_10071431, Time = 340.14 sec. 
Writing OUTPUT_TOUR_FILE: "baseline_results/cvrp_lkh/Vrp-Set-X-n289/Vrp-Set-X-n289-lkh/0.lkh1.tour" ... done
* 2266: Cost = 0_10071231, Time = 342.98 sec. 
Writing OUTPUT_TOUR_FILE: "baseline_results/cvrp_lkh/Vrp-Set-X-n289/Vrp-Set-X-n289-lkh/0.lkh1.tour" ... done
* 2272: Cost = 0_10068342, Time = 344.38 sec. 
Writing OUTPUT_TOUR_FILE: "baseline_results/cvrp_lkh/Vrp-Set-X-n289/Vrp-Set-X-n289-lkh/0.lkh1.tour" ... done
* 2379: Cost = 0_10058364, Time = 360.12 sec. 
Writing OUTPUT_TOUR_FILE: "baseline_results/cvrp_lkh/Vrp-Set-X-n289/Vrp-Set-X-n289-lkh/0.lkh1.tour" ... done
* 2429: Cost = 0_10048021, Time = 366.70 sec. 
Writing OUTPUT_TOUR_FILE: "baseline_results/cvrp_lkh/Vrp-Set-X-n289/Vrp-Set-X-n289-lkh/0.lkh1.tour" ... done
* 2571: Cost = 0_10047343, Time = 387.56 sec. 
Writing OUTPUT_TOUR_FILE: "baseline_results/cvrp_lkh/Vrp-Set-X-n289/Vrp-Set-X-n289-lkh/0.lkh1.tour" ... done
* 2582: Cost = 0_10045953, Time = 388.48 sec. 
Writing OUTPUT_TOUR_FILE: "baseline_results/cvrp_lkh/Vrp-Set-X-n289/Vrp-Set-X-n289-lkh/0.lkh1.tour" ... done
* 2615: Cost = 0_10044551, Time = 392.70 sec. 
Writing OUTPUT_TOUR_FILE: "baseline_results/cvrp_lkh/Vrp-Set-X-n289/Vrp-Set-X-n289-lkh/0.lkh1.tour" ... done
* 2621: Cost = 0_10043648, Time = 393.13 sec. 
Writing OUTPUT_TOUR_FILE: "baseline_results/cvrp_lkh/Vrp-Set-X-n289/Vrp-Set-X-n289-lkh/0.lkh1.tour" ... done
* 2769: Cost = 0_10042332, Time = 414.79 sec. 
Writing OUTPUT_TOUR_FILE: "baseline_results/cvrp_lkh/Vrp-Set-X-n289/Vrp-Set-X-n289-lkh/0.lkh1.tour" ... done
* 3424: Cost = 0_10041357, Time = 525.42 sec. 
Writing OUTPUT_TOUR_FILE: "baseline_results/cvrp_lkh/Vrp-Set-X-n289/Vrp-Set-X-n289-lkh/0.lkh1.tour" ... done
* 3558: Cost = 0_10039056, Time = 541.99 sec. 
Writing OUTPUT_TOUR_FILE: "baseline_results/cvrp_lkh/Vrp-Set-X-n289/Vrp-Set-X-n289-lkh/0.lkh1.tour" ... done
* 3566: Cost = 0_10038398, Time = 543.20 sec. 
Writing OUTPUT_TOUR_FILE: "baseline_results/cvrp_lkh/Vrp-Set-X-n289/Vrp-Set-X-n289-lkh/0.lkh1.tour" ... done
* 3665: Cost = 0_10038328, Time = 559.26 sec. 
Writing OUTPUT_TOUR_FILE: "baseline_results/cvrp_lkh/Vrp-Set-X-n289/Vrp-Set-X-n289-lkh/0.lkh1.tour" ... done
* 3691: Cost = 0_10032662, Time = 562.37 sec. 
Writing OUTPUT_TOUR_FILE: "baseline_results/cvrp_lkh/Vrp-Set-X-n289/Vrp-Set-X-n289-lkh/0.lkh1.tour" ... done
* 3742: Cost = 0_10031785, Time = 570.81 sec. 
Writing OUTPUT_TOUR_FILE: "baseline_results/cvrp_lkh/Vrp-Set-X-n289/Vrp-Set-X-n289-lkh/0.lkh1.tour" ... done
* 3821: Cost = 0_10021948, Time = 582.26 sec. 
Writing OUTPUT_TOUR_FILE: "baseline_results/cvrp_lkh/Vrp-Set-X-n289/Vrp-Set-X-n289-lkh/0.lkh1.tour" ... done
* 3855: Cost = 0_10021396, Time = 587.08 sec. 
Writing OUTPUT_TOUR_FILE: "baseline_results/cvrp_lkh/Vrp-Set-X-n289/Vrp-Set-X-n289-lkh/0.lkh1.tour" ... done
* 3965: Cost = 0_10021384, Time = 602.51 sec. 
Writing OUTPUT_TOUR_FILE: "baseline_results/cvrp_lkh/Vrp-Set-X-n289/Vrp-Set-X-n289-lkh/0.lkh1.tour" ... done
* 4221: Cost = 0_10011493, Time = 637.05 sec. 
Writing OUTPUT_TOUR_FILE: "baseline_results/cvrp_lkh/Vrp-Set-X-n289/Vrp-Set-X-n289-lkh/0.lkh1.tour" ... done
* 4422: Cost = 0_10010728, Time = 668.69 sec. 
Writing OUTPUT_TOUR_FILE: "baseline_results/cvrp_lkh/Vrp-Set-X-n289/Vrp-Set-X-n289-lkh/0.lkh1.tour" ... done
* 4442: Cost = 0_10010066, Time = 672.32 sec. 
Writing OUTPUT_TOUR_FILE: "baseline_results/cvrp_lkh/Vrp-Set-X-n289/Vrp-Set-X-n289-lkh/0.lkh1.tour" ... done
* 4604: Cost = 0_10008773, Time = 697.78 sec. 
Writing OUTPUT_TOUR_FILE: "baseline_results/cvrp_lkh/Vrp-Set-X-n289/Vrp-Set-X-n289-lkh/0.lkh1.tour" ... done
* 4809: Cost = 0_10006429, Time = 725.81 sec. 
Writing OUTPUT_TOUR_FILE: "baseline_results/cvrp_lkh/Vrp-Set-X-n289/Vrp-Set-X-n289-lkh/0.lkh1.tour" ... done
* 4839: Cost = 0_10006260, Time = 731.23 sec. 
Writing OUTPUT_TOUR_FILE: "baseline_results/cvrp_lkh/Vrp-Set-X-n289/Vrp-Set-X-n289-lkh/0.lkh1.tour" ... done
* 4887: Cost = 0_10005291, Time = 738.57 sec. 
Writing OUTPUT_TOUR_FILE: "baseline_results/cvrp_lkh/Vrp-Set-X-n289/Vrp-Set-X-n289-lkh/0.lkh1.tour" ... done
* 4909: Cost = 0_10004772, Time = 741.89 sec. 
Writing OUTPUT_TOUR_FILE: "baseline_results/cvrp_lkh/Vrp-Set-X-n289/Vrp-Set-X-n289-lkh/0.lkh1.tour" ... done
* 4940: Cost = 0_10004644, Time = 745.61 sec. 
Writing OUTPUT_TOUR_FILE: "baseline_results/cvrp_lkh/Vrp-Set-X-n289/Vrp-Set-X-n289-lkh/0.lkh1.tour" ... done
* 5050: Cost = 0_10004210, Time = 762.51 sec. 
Writing OUTPUT_TOUR_FILE: "baseline_results/cvrp_lkh/Vrp-Set-X-n289/Vrp-Set-X-n289-lkh/0.lkh1.tour" ... done
* 5086: Cost = 0_10003756, Time = 767.59 sec. 
Writing OUTPUT_TOUR_FILE: "baseline_results/cvrp_lkh/Vrp-Set-X-n289/Vrp-Set-X-n289-lkh/0.lkh1.tour" ... done
* 5114: Cost = 0_10003290, Time = 772.14 sec. 
Writing OUTPUT_TOUR_FILE: "baseline_results/cvrp_lkh/Vrp-Set-X-n289/Vrp-Set-X-n289-lkh/0.lkh1.tour" ... done
* 5250: Cost = 0_9988218, Time = 792.05 sec. 
Writing OUTPUT_TOUR_FILE: "baseline_results/cvrp_lkh/Vrp-Set-X-n289/Vrp-Set-X-n289-lkh/0.lkh1.tour" ... done
* 5293: Cost = 0_9985255, Time = 797.98 sec. 
Writing OUTPUT_TOUR_FILE: "baseline_results/cvrp_lkh/Vrp-Set-X-n289/Vrp-Set-X-n289-lkh/0.lkh1.tour" ... done
* 5594: Cost = 0_9984277, Time = 847.14 sec. 
Writing OUTPUT_TOUR_FILE: "baseline_results/cvrp_lkh/Vrp-Set-X-n289/Vrp-Set-X-n289-lkh/0.lkh1.tour" ... done
* 5819: Cost = 0_9981953, Time = 878.74 sec. 
Writing OUTPUT_TOUR_FILE: "baseline_results/cvrp_lkh/Vrp-Set-X-n289/Vrp-Set-X-n289-lkh/0.lkh1.tour" ... done
* 5912: Cost = 0_9981498, Time = 894.48 sec. 
Writing OUTPUT_TOUR_FILE: "baseline_results/cvrp_lkh/Vrp-Set-X-n289/Vrp-Set-X-n289-lkh/0.lkh1.tour" ... done
* 5946: Cost = 0_9979648, Time = 899.05 sec. 
Writing OUTPUT_TOUR_FILE: "baseline_results/cvrp_lkh/Vrp-Set-X-n289/Vrp-Set-X-n289-lkh/0.lkh1.tour" ... done
* 5950: Cost = 0_9971158, Time = 899.13 sec. 
Writing OUTPUT_TOUR_FILE: "baseline_results/cvrp_lkh/Vrp-Set-X-n289/Vrp-Set-X-n289-lkh/0.lkh1.tour" ... done
* 5976: Cost = 0_9968907, Time = 903.57 sec. 
Writing OUTPUT_TOUR_FILE: "baseline_results/cvrp_lkh/Vrp-Set-X-n289/Vrp-Set-X-n289-lkh/0.lkh1.tour" ... done
* 6344: Cost = 0_9965464, Time = 958.17 sec. 
Writing OUTPUT_TOUR_FILE: "baseline_results/cvrp_lkh/Vrp-Set-X-n289/Vrp-Set-X-n289-lkh/0.lkh1.tour" ... done
* 6444: Cost = 0_9958408, Time = 973.03 sec. 
Writing OUTPUT_TOUR_FILE: "baseline_results/cvrp_lkh/Vrp-Set-X-n289/Vrp-Set-X-n289-lkh/0.lkh1.tour" ... done
* 6476: Cost = 0_9956625, Time = 979.14 sec. 
Writing OUTPUT_TOUR_FILE: "baseline_results/cvrp_lkh/Vrp-Set-X-n289/Vrp-Set-X-n289-lkh/0.lkh1.tour" ... done
* 6577: Cost = 0_9956166, Time = 994.21 sec. 
Writing OUTPUT_TOUR_FILE: "baseline_results/cvrp_lkh/Vrp-Set-X-n289/Vrp-Set-X-n289-lkh/0.lkh1.tour" ... done
* 7310: Cost = 0_9949753, Time = 1106.41 sec. 
Writing OUTPUT_TOUR_FILE: "baseline_results/cvrp_lkh/Vrp-Set-X-n289/Vrp-Set-X-n289-lkh/0.lkh1.tour" ... done
* 7326: Cost = 0_9949422, Time = 1108.55 sec. 
Writing OUTPUT_TOUR_FILE: "baseline_results/cvrp_lkh/Vrp-Set-X-n289/Vrp-Set-X-n289-lkh/0.lkh1.tour" ... done
* 7383: Cost = 0_9947393, Time = 1114.06 sec. 
Writing OUTPUT_TOUR_FILE: "baseline_results/cvrp_lkh/Vrp-Set-X-n289/Vrp-Set-X-n289-lkh/0.lkh1.tour" ... done
* 8012: Cost = 0_9946931, Time = 1205.28 sec. 
Writing OUTPUT_TOUR_FILE: "baseline_results/cvrp_lkh/Vrp-Set-X-n289/Vrp-Set-X-n289-lkh/0.lkh1.tour" ... done
* 8078: Cost = 0_9946806, Time = 1215.15 sec. 
Writing OUTPUT_TOUR_FILE: "baseline_results/cvrp_lkh/Vrp-Set-X-n289/Vrp-Set-X-n289-lkh/0.lkh1.tour" ... done
* 8680: Cost = 0_9945387, Time = 1295.13 sec. 
Writing OUTPUT_TOUR_FILE: "baseline_results/cvrp_lkh/Vrp-Set-X-n289/Vrp-Set-X-n289-lkh/0.lkh1.tour" ... done
* 8818: Cost = 0_9944957, Time = 1315.89 sec. 
Writing OUTPUT_TOUR_FILE: "baseline_results/cvrp_lkh/Vrp-Set-X-n289/Vrp-Set-X-n289-lkh/0.lkh1.tour" ... done
* 8897: Cost = 0_9944157, Time = 1326.80 sec. 
Writing OUTPUT_TOUR_FILE: "baseline_results/cvrp_lkh/Vrp-Set-X-n289/Vrp-Set-X-n289-lkh/0.lkh1.tour" ... done
* 9758: Cost = 0_9942864, Time = 1452.25 sec. 
Writing OUTPUT_TOUR_FILE: "baseline_results/cvrp_lkh/Vrp-Set-X-n289/Vrp-Set-X-n289-lkh/0.lkh1.tour" ... done
* 9834: Cost = 0_9941266, Time = 1464.00 sec. 
Writing OUTPUT_TOUR_FILE: "baseline_results/cvrp_lkh/Vrp-Set-X-n289/Vrp-Set-X-n289-lkh/0.lkh1.tour" ... done
* 9917: Cost = 0_9937159, Time = 1474.94 sec. 
Writing OUTPUT_TOUR_FILE: "baseline_results/cvrp_lkh/Vrp-Set-X-n289/Vrp-Set-X-n289-lkh/0.lkh1.tour" ... done
* 9966: Cost = 0_9936838, Time = 1481.60 sec. 
Writing OUTPUT_TOUR_FILE: "baseline_results/cvrp_lkh/Vrp-Set-X-n289/Vrp-Set-X-n289-lkh/0.lkh1.tour" ... done
* 9973: Cost = 0_9936805, Time = 1482.74 sec. 
Writing OUTPUT_TOUR_FILE: "baseline_results/cvrp_lkh/Vrp-Set-X-n289/Vrp-Set-X-n289-lkh/0.lkh1.tour" ... done
Population:
  1: 0_9936805
Run 1: Cost = 0_9936805, Time = 1486.74 sec. 

Successes/Runs = 0/1 
Cost.min = 9936805, Cost.avg = 9936805.00, Cost.max = 9936805
Gap.min = 0.0000%, Gap.avg = 0.0000%, Gap.max = 0.0000%
Penalty.min = 0, Penalty.avg = 0.00, Penalty.max = 0
Trials.min = 10000, Trials.avg = 10000.0, Trials.max = 10000
Time.min = 1486.74 sec., Time.avg = 1486.74 sec., Time.max = 1486.74 sec.
Time.total = 1486.87 sec.
  Size.min = 3, Size.max = 16, Penalty = 0
  Cost.min = 50938, Cost.max = 285868, Cost.sum = 9936805
Best CVRP solution:
  Cost = 0_9936805

