experiment/data/lkh-res/Vrp-Set-X-n289/Vrp-Set-X-n289-lkh/0.lkh1.tour
NAME : 0.9936805.tour
COMMENT : Length = 9936805
COMMENT : Found by LKH-3 [Keld Helsgaun] Tue Apr  9 05:51:44 2024
TYPE : TOUR
DIMENSION : 348
TOUR_SECTION
1
3
283
264
215
309
31
126
157
204
322
274
188
150
313
58
131
86
22
8
113
15
35
6
134
348
122
199
220
257
299
218
108
137
323
136
21
26
293
99
64
144
231
97
217
40
306
93
34
62
71
295
234
91
46
148
301
260
187
103
266
239
311
48
281
66
159
316
135
165
284
261
191
221
75
152
88
312
271
4
65
68
325
254
186
168
213
310
286
77
230
87
343
214
268
235
344
132
228
227
209
206
90
162
18
237
304
52
211
55
341
51
70
43
139
183
298
193
196
111
324
96
184
177
81
320
163
67
78
140
19
14
336
41
212
73
49
265
282
321
80
216
263
185
337
154
156
201
314
114
104
125
138
339
129
115
247
79
317
39
76
29
155
292
83
251
63
249
302
245
107
12
23
332
178
101
224
27
243
208
273
326
176
33
241
182
315
255
170
250
307
28
153
189
20
45
345
92
240
246
256
346
205
95
210
347
110
60
7
269
319
272
106
248
37
291
279
236
100
222
223
161
300
197
244
280
44
331
174
24
142
145
5
130
141
69
25
61
259
151
338
147
192
242
207
329
13
38
275
267
173
328
190
171
276
296
72
277
225
195
164
203
119
160
30
11
102
32
50
105
232
258
330
53
252
179
158
334
2
121
166
285
297
288
226
98
94
303
54
287
219
59
290
112
123
56
116
74
109
118
9
82
340
124
57
127
305
169
180
200
238
172
342
36
47
128
120
85
117
133
335
202
17
167
16
333
270
149
198
308
175
10
42
89
84
294
278
253
229
327
262
289
233
318
194
146
143
181
-1
EOF
